6362 24 10440 23896 8272
6458 15 6525 12664 7944
6432 26 11310 22837 8294
6462 21 9135 17648 8244
6540 21 9135 18405 7750
6334 27 11745 22076 8272
6354 28 12180 24086 8260
6428 23 10005 19119 8076
6390 24 10440 20498 8184
6392 22 9570 18405 7904
